Route #1: 0 29 13 55 32 48 0
Route #2: 0 60 5 16 44 28 0
Route #3: 0 40 3 49 15 47 0
Route #4: 0 22 52 19 51 61 42 0
Route #5: 0 33 41 54 12 58 14 24 43 11 38 0
Route #6: 0 39 2 2 21 6 34 9 0
Route #7: 0 25 35 26 17 23 53 0
Route #8: 0 37 10 62 57 45 0
Route #9: 0 18 50 1 27 36 7 20 0
Route #10: 0 30 8 59 46 56 4 31 0
Cost 1686:
